<?xml version = "1.0" encoding="UTF-8" standalone="yes"?>
<CPLEXSolution version="1.2">
 <header
   problemName="mknap4_cut_n5"
   objectiveValue="3793.434122161816"
   solutionTypeValue="1"
   solutionTypeString="basic"
   solutionStatusValue="1"
   solutionStatusString="optimal"
   solutionMethodString="dual"
   primalFeasible="1"
   dualFeasible="1"
   simplexIterations="2"
   writeLevel="1"/>
 <quality
   epRHS="9.9999999999999995e-07"
   epOpt="9.9999999999999995e-07"
   maxPrimalInfeas="0"
   maxDualInfeas="0"
   maxPrimalResidual="6.3948846218409017e-14"
   maxDualResidual="0"
   maxX="1"
   maxPi="3536.0701646184521"
   maxSlack="418.83402622321722"
   maxRedCost="4231.480446799761"
   kappa="7.7927606339045772"/>
 <linearConstraints>
  <constraint name="c0" index="0" status="BS" slack="313.80396546210437" dual="-0"/>
  <constraint name="c1" index="1" status="BS" slack="251.60393348257128" dual="-0"/>
  <constraint name="c2" index="2" status="BS" slack="324.14534697793363" dual="-0"/>
  <constraint name="c3" index="3" status="BS" slack="337.71442276942707" dual="-0"/>
  <constraint name="c4" index="4" status="BS" slack="418.83402622321722" dual="-0"/>
  <constraint name="cut_1" index="5" status="LL" slack="0" dual="883.29236907426866"/>
  <constraint name="cut_2" index="6" status="BS" slack="0.07467220978572664" dual="-0"/>
  <constraint name="cut_3" index="7" status="LL" slack="0" dual="108.14859823046581"/>
  <constraint name="cut_4" index="8" status="BS" slack="0.093939878477688699" dual="-0"/>
  <constraint name="cut_5" index="9" status="LL" slack="0" dual="3536.0701646184521"/>
 </linearConstraints>
 <variables>
  <variable name="x0" index="0" status="LL" value="0" reducedCost="-3691.2702422830321"/>
  <variable name="x1" index="1" status="UL" value="1" reducedCost="1125"/>
  <variable name="x2" index="2" status="LL" value="0" reducedCost="-2948.5130887660457"/>
  <variable name="x3" index="3" status="BS" value="0.3682443236328829" reducedCost="0"/>
  <variable name="x4" index="4" status="LL" value="0" reducedCost="-153.91572631611234"/>
  <variable name="x5" index="5" status="BS" value="0.65222257755036961" reducedCost="0"/>
  <variable name="x6" index="6" status="LL" value="0" reducedCost="-1429.3854675864584"/>
  <variable name="x7" index="7" status="LL" value="0" reducedCost="-1724.8195897482747"/>
  <variable name="x8" index="8" status="LL" value="0" reducedCost="-3483.3724473479815"/>
  <variable name="x9" index="9" status="LL" value="0" reducedCost="-4231.480446799761"/>
  <variable name="x10" index="10" status="LL" value="0" reducedCost="-1958.6072151917997"/>
  <variable name="x11" index="11" status="LL" value="0" reducedCost="-3300.5021548113955"/>
  <variable name="x12" index="12" status="LL" value="0" reducedCost="-153.30412535976967"/>
  <variable name="x13" index="13" status="LL" value="0" reducedCost="-1115.7498362952472"/>
  <variable name="x14" index="14" status="LL" value="0" reducedCost="-1310.0921391261968"/>
  <variable name="x15" index="15" status="BS" value="0.25751519027822051" reducedCost="0"/>
  <variable name="x16" index="16" status="LL" value="0" reducedCost="-386.79918376048823"/>
  <variable name="x17" index="17" status="UL" value="1" reducedCost="115"/>
  <variable name="x18" index="18" status="LL" value="0" reducedCost="-1367.1247582499577"/>
  <variable name="x19" index="19" status="LL" value="0" reducedCost="-1050.5419769442792"/>
  <variable name="x20" index="20" status="UL" value="1" reducedCost="631"/>
  <variable name="x21" index="21" status="LL" value="0" reducedCost="-2006.0030608981672"/>
  <variable name="x22" index="22" status="LL" value="0" reducedCost="-923.57285242206876"/>
  <variable name="x23" index="23" status="LL" value="0" reducedCost="-1715.7473616885186"/>
  <variable name="x24" index="24" status="LL" value="0" reducedCost="-1189.4321044055609"/>
  <variable name="x25" index="25" status="LL" value="0" reducedCost="-1483.3251100248217"/>
  <variable name="x26" index="26" status="LL" value="0" reducedCost="-34.970685427992649"/>
  <variable name="x27" index="27" status="LL" value="0" reducedCost="-3365.1725295810666"/>
  <variable name="x28" index="28" status="LL" value="0" reducedCost="-3467.1582301612671"/>
  <variable name="x29" index="29" status="LL" value="0" reducedCost="-1193.1476616869963"/>
  <variable name="x30" index="30" status="LL" value="0" reducedCost="-3539.2144151552516"/>
  <variable name="x31" index="31" status="LL" value="0" reducedCost="-1179.1373292521353"/>
  <variable name="x32" index="32" status="UL" value="1" reducedCost="316"/>
  <variable name="x33" index="33" status="LL" value="0" reducedCost="-3492.8165060075821"/>
  <variable name="x34" index="34" status="LL" value="0" reducedCost="-1034.3822772473236"/>
  <variable name="x35" index="35" status="LL" value="0" reducedCost="-3427.8233587646746"/>
  <variable name="x36" index="36" status="LL" value="0" reducedCost="-3532.2312957802233"/>
  <variable name="x37" index="37" status="LL" value="0" reducedCost="-1110.4955761645879"/>
  <variable name="x38" index="38" status="LL" value="0" reducedCost="-1258.1715930375985"/>
 </variables>
 <objectiveValues>
  <objective index="0" name="" value="3793.434122161816"/>
 </objectiveValues>
</CPLEXSolution>
